Minimize
  - 36 y_0 - 64 y_1 - 49 y_2 - 25 y_3 - 23 y_4 - 20 y_5 - 65 y_6 - 19 y_7
   - 46 y_8 - 50 y_9 - 48 y_10 - 41 y_11 - 46 y_12 - 34 y_13 - 36 y_14
   - 46 y_15 - 31 y_16 - 19 y_17 - 59 y_18 - 39 y_19 - 49 y_20 - 42 y_21
   - 37 y_22 - 9 y_23 - 17 y_24 - 46 y_25 - 25 y_26 - 52 y_27 - 44 y_28
   - 22 y_29 - 47 y_30 - 47 y_31 - 43 y_32 - 55 y_33 - 32 y_34 - 39 y_35
   - 17 y_36 - 44 y_37 - 23 y_38 - 44 y_39 - 51 y_40 - 25 y_41 - 47 y_42
   - 61 y_43 - 54 y_44 - 25 y_45 - 36 y_46 - 48 y_47 - 24 y_48 - 53 y_49
   - 54 y_50 - 54 y_51 - 48 y_52 - 56 y_53 - 41 y_54 - 38 y_55 - 47 y_56
   - 34 y_57 - 28 y_58 - 16 y_59 - 33 y_60 - 22 y_61 - 10 y_62 - 46 y_63
   - 16 y_64 - 42 y_65 - 45 y_66 - 43 y_67 - 58 y_68 - 11 y_69 - 60 y_70
   - 53 y_71 - 16 y_72 - 29 y_73 - 51 y_74 - 28 y_75 - 20 y_76 - 57 y_77
   - 51 y_78 - 28 y_79 - 40 y_80 - 38 y_81 - 54 y_82 - 45 y_83 - 17 y_84
   - 45 y_85 - 30 y_86 - 44 y_87 - 39 y_88 - 48 y_89 - 23 y_90 - 36 y_91
   - 56 y_92 - 68 y_93 - 26 y_94 - 46 y_95 - 57 y_96 - 31 y_98 - 62 y_99
   + 3894 Constant
Subject To
 c_0: y_35 = 1
 c_1_0: y_0 + y_16 >= 1
 c_1_1: y_1 >= 1
 c_1_2: y_2 + y_8 + y_95 >= 1
 c_1_3: y_3 + y_38 >= 1
 c_1_4: y_4 + y_17 + y_24 + y_26 >= 1
 c_1_5: y_5 >= 1
 c_1_6: y_6 >= 1
 c_1_7: y_7 >= 1
 c_1_8: y_2 + y_8 + y_95 >= 1
 c_1_9: y_9 >= 1
 c_1_10: y_10 >= 1
 c_1_11: y_11 + y_65 >= 1
 c_1_12: y_12 + y_52 + y_83 >= 1
 c_1_13: y_13 >= 1
 c_1_14: y_14 + y_57 >= 1
 c_1_15: y_15 >= 1
 c_1_16: y_0 + y_16 >= 1
 c_1_17: y_4 + y_17 + y_24 >= 1
 c_1_18: y_18 + y_43 + y_92 >= 1
 c_1_19: y_19 >= 1
 c_1_20: y_20 >= 1
 c_1_21: y_21 >= 1
 c_1_22: y_22 + y_80 >= 1
 c_1_23: y_23 >= 1
 c_1_24: y_4 + y_17 + y_24 >= 1
 c_1_25: y_25 + y_78 >= 1
 c_1_26: y_4 + y_26 >= 1
 c_1_27: y_27 + y_40 >= 1
 c_1_28: y_28 >= 1
 c_1_29: y_29 + y_76 >= 1
 c_1_30: y_30 + y_31 >= 1
 c_1_31: y_30 + y_31 >= 1
 c_1_32: y_32 >= 1
 c_1_33: y_33 >= 1
 c_1_34: y_34 >= 1
 c_1_35: y_35 >= 1
 c_1_36: y_36 >= 1
 c_1_37: y_37 + y_80 >= 1
 c_1_38: y_3 + y_38 >= 1
 c_1_39: y_39 >= 1
 c_1_40: y_27 + y_40 + y_78 >= 1
 c_1_41: y_41 >= 1
 c_1_42: y_42 >= 1
 c_1_43: y_18 + y_43 + y_77 >= 1
 c_1_44: y_44 >= 1
 c_1_45: y_45 + y_90 >= 1
 c_1_46: y_46 >= 1
 c_1_47: y_47 >= 1
 c_1_48: y_48 >= 1
 c_1_49: y_49 >= 1
 c_1_50: y_50 + y_92 >= 1
 c_1_51: y_51 >= 1
 c_1_52: y_12 + y_52 + y_83 >= 1
 c_1_53: y_53 + y_77 >= 1
 c_1_54: y_54 >= 1
 c_1_55: y_55 >= 1
 c_1_56: y_56 + y_85 >= 1
 c_1_57: y_14 + y_57 >= 1
 c_1_58: y_58 + y_60 + y_73 >= 1
 c_1_59: y_59 + y_72 >= 1
 c_1_60: y_58 + y_60 >= 1
 c_1_61: y_61 >= 1
 c_1_62: y_62 >= 1
 c_1_63: y_63 + y_67 >= 1
 c_1_64: y_64 >= 1
 c_1_65: y_11 + y_65 >= 1
 c_1_66: y_66 >= 1
 c_1_67: y_63 + y_67 >= 1
 c_1_68: y_68 >= 1
 c_1_69: y_69 >= 1
 c_1_70: y_70 >= 1
 c_1_71: y_71 >= 1
 c_1_72: y_59 + y_72 >= 1
 c_1_73: y_58 + y_73 >= 1
 c_1_74: y_74 >= 1
 c_1_75: y_75 + y_86 >= 1
 c_1_76: y_29 + y_76 >= 1
 c_1_77: y_43 + y_53 + y_77 >= 1
 c_1_78: y_25 + y_40 + y_78 >= 1
 c_1_79: y_79 >= 1
 c_1_80: y_22 + y_37 + y_80 >= 1
 c_1_81: y_81 + y_91 >= 1
 c_1_82: y_82 >= 1
 c_1_83: y_12 + y_52 + y_83 >= 1
 c_1_84: y_84 >= 1
 c_1_85: y_56 + y_85 >= 1
 c_1_86: y_75 + y_86 >= 1
 c_1_87: y_87 >= 1
 c_1_88: y_88 >= 1
 c_1_89: y_89 >= 1
 c_1_90: y_45 + y_90 >= 1
 c_1_91: y_81 + y_91 >= 1
 c_1_92: y_18 + y_50 + y_92 >= 1
 c_1_93: y_93 >= 1
 c_1_94: y_94 >= 1
 c_1_95: y_2 + y_8 + y_95 >= 1
 c_1_96: y_96 >= 1
 c_1_97: y_97 >= 1
 c_1_98: y_98 >= 1
 c_1_99: y_99 >= 1
Bounds
 Constant = 1
Binaries
 y_0 y_1 y_2 y_3 y_4 y_5 y_6 y_7 y_8 y_9 y_10 y_11 y_12 y_13 y_14 y_15 y_16
 y_17 y_18 y_19 y_20 y_21 y_22 y_23 y_24 y_25 y_26 y_27 y_28 y_29 y_30 y_31
 y_32 y_33 y_34 y_35 y_36 y_37 y_38 y_39 y_40 y_41 y_42 y_43 y_44 y_45 y_46
 y_47 y_48 y_49 y_50 y_51 y_52 y_53 y_54 y_55 y_56 y_57 y_58 y_59 y_60 y_61
 y_62 y_63 y_64 y_65 y_66 y_67 y_68 y_69 y_70 y_71 y_72 y_73 y_74 y_75 y_76
 y_77 y_78 y_79 y_80 y_81 y_82 y_83 y_84 y_85 y_86 y_87 y_88 y_89 y_90 y_91
 y_92 y_93 y_94 y_95 y_96 y_97 y_98 y_99
End
